(set-info :smt-lib-version 2.6)
(set-logic QF_NIA)
(set-info :source |AProve team, see http://aprove.informatik.rwth-aachen.de/, submitted for SMT-COMP 2014|)
(set-info :category "industrial")
(set-info :status unknown)
(declare-fun b__98 () Int)
(declare-fun a__6 () Int)
(declare-fun a__3 () Int)
(declare-fun a__2 () Int)
(declare-fun a__13 () Int)
(declare-fun a__45 () Int)
(declare-fun a__32 () Int)
(declare-fun a__34 () Int)
(declare-fun b__99 () Int)
(declare-fun a__77 () Int)
(declare-fun a__74 () Int)
(declare-fun a__61 () Int)
(declare-fun a__87 () Int)
(declare-fun a__44 () Int)
(declare-fun a__51 () Int)
(declare-fun a__47 () Int)
(declare-fun a__38 () Int)
(declare-fun a__57 () Int)
(declare-fun a__71 () Int)
(declare-fun a__84 () Int)
(declare-fun a__93 () Int)
(declare-fun a__90 () Int)
(declare-fun a__67 () Int)
(declare-fun a__80 () Int)
(declare-fun b__100 () Int)
(declare-fun b__101 () Int)
(declare-fun b__102 () Int)
(declare-fun a__8 () Int)
(declare-fun a__10 () Int)
(declare-fun a__11 () Int)
(declare-fun a__7 () Int)
(declare-fun a__14 () Int)
(declare-fun a__15 () Int)
(declare-fun a__16 () Int)
(declare-fun a__17 () Int)
(declare-fun a__18 () Int)
(declare-fun a__20 () Int)
(declare-fun a__21 () Int)
(declare-fun a__19 () Int)
(declare-fun a__22 () Int)
(declare-fun a__24 () Int)
(declare-fun a__25 () Int)
(declare-fun a__23 () Int)
(declare-fun a__9 () Int)
(declare-fun a__26 () Int)
(declare-fun a__27 () Int)
(declare-fun a__28 () Int)
(declare-fun a__29 () Int)
(declare-fun a__30 () Int)
(declare-fun a__12 () Int)
(declare-fun a__4 () Int)
(declare-fun a__31 () Int)
(declare-fun a__33 () Int)
(declare-fun a__35 () Int)
(declare-fun a__36 () Int)
(declare-fun a__37 () Int)
(declare-fun a__41 () Int)
(declare-fun a__42 () Int)
(declare-fun a__39 () Int)
(declare-fun a__40 () Int)
(declare-fun a__43 () Int)
(declare-fun a__46 () Int)
(declare-fun a__48 () Int)
(declare-fun a__49 () Int)
(declare-fun a__50 () Int)
(declare-fun a__52 () Int)
(declare-fun a__53 () Int)
(declare-fun a__54 () Int)
(declare-fun a__55 () Int)
(declare-fun a__56 () Int)
(declare-fun a__58 () Int)
(declare-fun a__59 () Int)
(declare-fun a__60 () Int)
(declare-fun a__64 () Int)
(declare-fun a__65 () Int)
(declare-fun a__62 () Int)
(declare-fun a__63 () Int)
(declare-fun a__66 () Int)
(declare-fun a__68 () Int)
(declare-fun a__69 () Int)
(declare-fun a__70 () Int)
(declare-fun a__72 () Int)
(declare-fun a__73 () Int)
(declare-fun a__75 () Int)
(declare-fun a__76 () Int)
(declare-fun a__78 () Int)
(declare-fun a__79 () Int)
(declare-fun a__81 () Int)
(declare-fun a__82 () Int)
(declare-fun a__83 () Int)
(declare-fun a__85 () Int)
(declare-fun a__86 () Int)
(declare-fun a__88 () Int)
(declare-fun a__89 () Int)
(declare-fun a__91 () Int)
(declare-fun a__92 () Int)
(declare-fun a__94 () Int)
(declare-fun a__95 () Int)
(declare-fun a__96 () Int)
(declare-fun a__97 () Int)
(declare-fun a__1 () Int)
(declare-fun a__5 () Int)
(assert (and (>= (+ 1 (* (- 0 1) b__98)) 0) (= (+ (* b__98 a__6) (* (- 0 1) a__6)) 0) (= (+ (* b__98 a__3) (* (- 0 1) a__3)) 0) (= (+ (* b__98 a__2 a__13) (* (- 0 1) (* a__2 a__13))) 0) (= (+ (* b__98 a__45 a__2 a__32) (* (- 0 1) (* a__45 a__2 a__32))) 0) (= (+ (* b__98 a__2 a__32 a__34) (* (- 0 1) (* a__2 a__32 a__34))) 0) (>= (+ 1 (* (- 0 1) b__99)) 0) (= (+ (* b__99 a__2) (* (- 0 1) a__2)) 0) (= (+ (* b__99 a__6 a__77) (* (- 0 1) (* a__6 a__77))) 0) (= (+ (* b__99 a__3 a__77) (* (- 0 1) (* a__3 a__77))) 0) (= (+ (* b__99 a__6 a__74 a__61) (* (- 0 1) (* a__6 a__74 a__61))) 0) (= (+ (* b__99 a__6 a__87 a__61) (* (- 0 1) (* a__6 a__87 a__61))) 0) (= (+ (* b__99 a__6 a__44 a__51) (* (- 0 1) (* a__6 a__44 a__51))) 0) (= (+ (* b__99 a__6 a__47 a__38) (* (- 0 1) (* a__6 a__47 a__38))) 0) (= (+ (* b__99 a__6 a__57 a__38) (* (- 0 1) (* a__6 a__57 a__38))) 0) (= (+ (* b__99 a__74 a__3 a__61) (* (- 0 1) (* a__74 a__3 a__61))) 0) (= (+ (* b__99 a__87 a__3 a__61) (* (- 0 1) (* a__87 a__3 a__61))) 0) (= (+ (* b__99 a__44 a__3 a__51) (* (- 0 1) (* a__44 a__3 a__51))) 0) (= (+ (* b__99 a__3 a__47 a__38) (* (- 0 1) (* a__3 a__47 a__38))) 0) (= (+ (* b__99 a__3 a__57 a__38) (* (- 0 1) (* a__3 a__57 a__38))) 0) (= (+ (* b__99 a__6 a__71 a__44 a__61) (* (- 0 1) (* a__6 a__71 a__44 a__61))) 0) (= (+ (* b__99 a__6 a__84 a__44 a__61) (* (- 0 1) (* a__6 a__84 a__44 a__61))) 0) (= (+ (* b__99 a__6 a__93 a__47 a__61) (* (- 0 1) (* a__6 a__93 a__47 a__61))) 0) (= (+ (* b__99 a__6 a__93 a__57 a__61) (* (- 0 1) (* a__6 a__93 a__57 a__61))) 0) (= (+ (* b__99 a__6 a__74 a__90 a__38) (* (- 0 1) (* a__6 a__74 a__90 a__38))) 0) (= (+ (* b__99 a__6 a__87 a__90 a__38) (* (- 0 1) (* a__6 a__87 a__90 a__38))) 0) (= (+ (* b__99 a__6 a__44 a__67 a__38) (* (- 0 1) (* a__6 a__44 a__67 a__38))) 0) (= (+ (* b__99 a__6 a__44 a__80 a__38) (* (- 0 1) (* a__6 a__44 a__80 a__38))) 0) (= (+ (* b__99 a__71 a__44 a__3 a__61) (* (- 0 1) (* a__71 a__44 a__3 a__61))) 0) (= (+ (* b__99 a__84 a__44 a__3 a__61) (* (- 0 1) (* a__84 a__44 a__3 a__61))) 0) (= (+ (* b__99 a__93 a__3 a__47 a__61) (* (- 0 1) (* a__93 a__3 a__47 a__61))) 0) (= (+ (* b__99 a__93 a__3 a__57 a__61) (* (- 0 1) (* a__93 a__3 a__57 a__61))) 0) (= (+ (* b__99 a__74 a__3 a__90 a__38) (* (- 0 1) (* a__74 a__3 a__90 a__38))) 0) (= (+ (* b__99 a__87 a__3 a__90 a__38) (* (- 0 1) (* a__87 a__3 a__90 a__38))) 0) (= (+ (* b__99 a__44 a__3 a__67 a__38) (* (- 0 1) (* a__44 a__3 a__67 a__38))) 0) (= (+ (* b__99 a__44 a__3 a__80 a__38) (* (- 0 1) (* a__44 a__3 a__80 a__38))) 0) (= (+ (* b__99 a__6 a__71 a__44 a__90 a__38) (* (- 0 1) (* a__6 a__71 a__44 a__90 a__38))) 0) (= (+ (* b__99 a__6 a__84 a__44 a__90 a__38) (* (- 0 1) (* a__6 a__84 a__44 a__90 a__38))) 0) (= (+ (* b__99 a__6 a__93 a__44 a__67 a__61) (* (- 0 1) (* a__6 a__93 a__44 a__67 a__61))) 0) (= (+ (* b__99 a__6 a__93 a__44 a__80 a__61) (* (- 0 1) (* a__6 a__93 a__44 a__80 a__61))) 0) (= (+ (* b__99 a__71 a__44 a__3 a__90 a__38) (* (- 0 1) (* a__71 a__44 a__3 a__90 a__38))) 0) (= (+ (* b__99 a__84 a__44 a__3 a__90 a__38) (* (- 0 1) (* a__84 a__44 a__3 a__90 a__38))) 0) (= (+ (* b__99 a__93 a__44 a__3 a__67 a__61) (* (- 0 1) (* a__93 a__44 a__3 a__67 a__61))) 0) (= (+ (* b__99 a__93 a__44 a__3 a__80 a__61) (* (- 0 1) (* a__93 a__44 a__3 a__80 a__61))) 0) (>= (+ 1 (* (- 0 1) b__100)) 0) (= (+ (* b__100 a__6 a__51) (* (- 0 1) (* a__6 a__51))) 0) (= (+ (* b__100 a__2 a__32) (* (- 0 1) (* a__2 a__32))) 0) (= (+ (* b__100 a__3 a__51) (* (- 0 1) (* a__3 a__51))) 0) (= (+ (* b__100 a__6 a__71 a__61) (* (- 0 1) (* a__6 a__71 a__61))) 0) (= (+ (* b__100 a__6 a__84 a__61) (* (- 0 1) (* a__6 a__84 a__61))) 0) (= (+ (* b__100 a__6 a__32 a__77) (* (- 0 1) (* a__6 a__32 a__77))) 0) (= (+ (* b__100 a__6 a__67 a__38) (* (- 0 1) (* a__6 a__67 a__38))) 0) (= (+ (* b__100 a__6 a__80 a__38) (* (- 0 1) (* a__6 a__80 a__38))) 0) (= (+ (* b__100 a__71 a__3 a__61) (* (- 0 1) (* a__71 a__3 a__61))) 0) (= (+ (* b__100 a__84 a__3 a__61) (* (- 0 1) (* a__84 a__3 a__61))) 0) (= (+ (* b__100 a__2 a__51 a__13) (* (- 0 1) (* a__2 a__51 a__13))) 0) (= (+ (* b__100 a__3 a__32 a__77) (* (- 0 1) (* a__3 a__32 a__77))) 0) (= (+ (* b__100 a__3 a__67 a__38) (* (- 0 1) (* a__3 a__67 a__38))) 0) (= (+ (* b__100 a__3 a__80 a__38) (* (- 0 1) (* a__3 a__80 a__38))) 0) (= (+ (* b__100 a__6 a__71 a__90 a__38) (* (- 0 1) (* a__6 a__71 a__90 a__38))) 0) (= (+ (* b__100 a__6 a__84 a__90 a__38) (* (- 0 1) (* a__6 a__84 a__90 a__38))) 0) (= (+ (* b__100 a__6 a__93 a__67 a__61) (* (- 0 1) (* a__6 a__93 a__67 a__61))) 0) (= (+ (* b__100 a__6 a__93 a__80 a__61) (* (- 0 1) (* a__6 a__93 a__80 a__61))) 0) (= (+ (* b__100 a__6 a__74 a__32 a__61) (* (- 0 1) (* a__6 a__74 a__32 a__61))) 0) (= (+ (* b__100 a__6 a__87 a__32 a__61) (* (- 0 1) (* a__6 a__87 a__32 a__61))) 0) (= (+ (* b__100 a__6 a__32 a__47 a__38) (* (- 0 1) (* a__6 a__32 a__47 a__38))) 0) (= (+ (* b__100 a__6 a__32 a__57 a__38) (* (- 0 1) (* a__6 a__32 a__57 a__38))) 0) (= (+ (* b__100 a__71 a__2 a__61 a__13) (* (- 0 1) (* a__71 a__2 a__61 a__13))) 0) (= (+ (* b__100 a__71 a__3 a__90 a__38) (* (- 0 1) (* a__71 a__3 a__90 a__38))) 0) (= (+ (* b__100 a__84 a__2 a__61 a__13) (* (- 0 1) (* a__84 a__2 a__61 a__13))) 0) (= (+ (* b__100 a__84 a__3 a__90 a__38) (* (- 0 1) (* a__84 a__3 a__90 a__38))) 0) (= (+ (* b__100 a__93 a__3 a__67 a__61) (* (- 0 1) (* a__93 a__3 a__67 a__61))) 0) (= (+ (* b__100 a__93 a__3 a__80 a__61) (* (- 0 1) (* a__93 a__3 a__80 a__61))) 0) (= (+ (* b__100 a__74 a__3 a__32 a__61) (* (- 0 1) (* a__74 a__3 a__32 a__61))) 0) (= (+ (* b__100 a__87 a__3 a__32 a__61) (* (- 0 1) (* a__87 a__3 a__32 a__61))) 0) (= (+ (* b__100 a__2 a__67 a__38 a__13) (* (- 0 1) (* a__2 a__67 a__38 a__13))) 0) (= (+ (* b__100 a__2 a__80 a__38 a__13) (* (- 0 1) (* a__2 a__80 a__38 a__13))) 0) (= (+ (* b__100 a__3 a__32 a__47 a__38) (* (- 0 1) (* a__3 a__32 a__47 a__38))) 0) (= (+ (* b__100 a__3 a__32 a__57 a__38) (* (- 0 1) (* a__3 a__32 a__57 a__38))) 0) (= (+ (* b__100 a__6 a__93 a__32 a__47 a__61) (* (- 0 1) (* a__6 a__93 a__32 a__47 a__61))) 0) (= (+ (* b__100 a__6 a__93 a__32 a__57 a__61) (* (- 0 1) (* a__6 a__93 a__32 a__57 a__61))) 0) (= (+ (* b__100 a__6 a__74 a__32 a__90 a__38) (* (- 0 1) (* a__6 a__74 a__32 a__90 a__38))) 0) (= (+ (* b__100 a__6 a__87 a__32 a__90 a__38) (* (- 0 1) (* a__6 a__87 a__32 a__90 a__38))) 0) (= (+ (* b__100 a__71 a__2 a__90 a__38 a__13) (* (- 0 1) (* a__71 a__2 a__90 a__38 a__13))) 0) (= (+ (* b__100 a__84 a__2 a__90 a__38 a__13) (* (- 0 1) (* a__84 a__2 a__90 a__38 a__13))) 0) (= (+ (* b__100 a__93 a__2 a__67 a__61 a__13) (* (- 0 1) (* a__93 a__2 a__67 a__61 a__13))) 0) (= (+ (* b__100 a__93 a__2 a__80 a__61 a__13) (* (- 0 1) (* a__93 a__2 a__80 a__61 a__13))) 0) (= (+ (* b__100 a__93 a__3 a__32 a__47 a__61) (* (- 0 1) (* a__93 a__3 a__32 a__47 a__61))) 0) (= (+ (* b__100 a__93 a__3 a__32 a__57 a__61) (* (- 0 1) (* a__93 a__3 a__32 a__57 a__61))) 0) (= (+ (* b__100 a__74 a__3 a__32 a__90 a__38) (* (- 0 1) (* a__74 a__3 a__32 a__90 a__38))) 0) (= (+ (* b__100 a__87 a__3 a__32 a__90 a__38) (* (- 0 1) (* a__87 a__3 a__32 a__90 a__38))) 0) (>= (+ 1 (* (- 0 1) b__101)) 0) (= (+ (* b__101 a__6 a__38) (* (- 0 1) (* a__6 a__38))) 0) (= (+ (* b__101 a__3 a__38) (* (- 0 1) (* a__3 a__38))) 0) (= (+ (* b__101 a__6 a__93 a__61) (* (- 0 1) (* a__6 a__93 a__61))) 0) (= (+ (* b__101 a__93 a__3 a__61) (* (- 0 1) (* a__93 a__3 a__61))) 0) (= (+ (* b__101 a__2 a__38 a__13) (* (- 0 1) (* a__2 a__38 a__13))) 0) (= (+ (* b__101 a__93 a__2 a__61 a__13) (* (- 0 1) (* a__93 a__2 a__61 a__13))) 0) (= (+ (* b__101 a__45 a__2 a__32 a__38) (* (- 0 1) (* a__45 a__2 a__32 a__38))) 0) (= (+ (* b__101 a__2 a__32 a__38 a__34) (* (- 0 1) (* a__2 a__32 a__38 a__34))) 0) (= (+ (* b__101 a__93 a__45 a__2 a__32 a__61) (* (- 0 1) (* a__93 a__45 a__2 a__32 a__61))) 0) (= (+ (* b__101 a__93 a__2 a__32 a__61 a__34) (* (- 0 1) (* a__93 a__2 a__32 a__61 a__34))) 0) (>= (+ 1 (* (- 0 1) b__102)) 0) (= (+ (* b__102 a__6 a__61) (* (- 0 1) (* a__6 a__61))) 0) (= (+ (* b__102 a__3 a__61) (* (- 0 1) (* a__3 a__61))) 0) (= (+ (* b__102 a__6 a__90 a__38) (* (- 0 1) (* a__6 a__90 a__38))) 0) (= (+ (* b__102 a__2 a__61 a__13) (* (- 0 1) (* a__2 a__61 a__13))) 0) (= (+ (* b__102 a__3 a__90 a__38) (* (- 0 1) (* a__3 a__90 a__38))) 0) (= (+ (* b__102 a__45 a__2 a__32 a__61) (* (- 0 1) (* a__45 a__2 a__32 a__61))) 0) (= (+ (* b__102 a__2 a__32 a__61 a__34) (* (- 0 1) (* a__2 a__32 a__61 a__34))) 0) (= (+ (* b__102 a__2 a__90 a__38 a__13) (* (- 0 1) (* a__2 a__90 a__38 a__13))) 0) (= (+ (* b__102 a__45 a__2 a__32 a__90 a__38) (* (- 0 1) (* a__45 a__2 a__32 a__90 a__38))) 0) (= (+ (* b__102 a__2 a__32 a__90 a__38 a__34) (* (- 0 1) (* a__2 a__32 a__90 a__38 a__34))) 0) (>= (+ a__3 (* (- 0 1) (* a__8 a__6))) 0) (>= (+ (* a__10 a__6) (* (- 0 1) (* a__8 a__13 a__2))) 0) (>= (+ (* a__11 a__6) (* (- 0 1) (* a__8 a__3))) 0) (>= (+ (* b__98 a__7) (* b__98 a__14 a__8) (* (- 0 1) (* b__98 a__15))) 0) (>= (+ (* b__98 a__7) (* b__98 a__16 a__8) (* (- 0 1) (* b__98 a__17))) 0) (>= (+ (* b__98 a__7) (* b__98 a__18 a__8) (* (- 0 1) (* b__98 a__20)) (* (- 0 1) (* b__98 a__7 a__21))) 0) (>= (+ (* b__98 a__19 a__8) (* (- 0 1) (* b__98 a__8 a__21))) 0) (>= (+ (* b__98 a__7) (* b__98 a__22 a__8) (* (- 0 1) (* b__98 a__24)) (* (- 0 1) (* b__98 a__7 a__25))) 0) (>= (+ (* b__98 a__23 a__8) (* (- 0 1) (* b__98 a__8 a__25))) 0) (>= (+ (* b__98 a__7) (* b__98 a__9 a__8) (* (- 0 1) (* b__98 a__26)) (* (- 0 1) (* b__98 a__7 a__27))) 0) (>= (+ (* b__98 a__10 a__8) (* (- 0 1) (* b__98 a__8 a__27))) 0) (>= (+ (* b__98 a__11 a__8) (* (- 0 1) (* b__98 a__28))) 0) (>= (+ (* b__98 a__7) (* b__98 a__29 a__8) (* (- 0 1) (* b__98 a__30))) 0) (>= (+ (* b__98 a__8) (* (- 0 1) b__98)) 0) (>= (+ (* b__99 a__12) (* b__99 a__16 a__13) (* (- 0 1) (* b__99 a__4))) 0) (>= (+ (* b__99 a__12) (* b__99 a__18 a__13) (* (- 0 1) (* b__99 a__31)) (* (- 0 1) (* b__99 a__33 a__32)) (* (- 0 1) (* b__99 a__7 a__34 a__32))) 0) (>= (+ (* b__99 a__19 a__13) (* (- 0 1) (* b__99 a__8 a__34 a__32))) 0) (>= (+ (* b__99 a__12) (* b__99 a__22 a__13) (* (- 0 1) (* b__99 a__35)) (* (- 0 1) (* b__99 a__12 a__36)) (* (- 0 1) (* b__99 a__7 a__13 a__36))) 0) (>= (+ (* b__99 a__23 a__13) (* (- 0 1) (* b__99 a__8 a__13 a__36))) 0) (>= (+ (* b__98 a__20) (* b__98 a__26 a__21) (* (- 0 1) (* b__98 a__37)) (* (- 0 1) (* b__98 a__41 a__38)) (* (- 0 1) (* b__98 a__7 a__42 a__38)) (* (- 0 1) (* b__98 a__7 a__39))) 0) (>= (+ (* b__98 a__27 a__21) (* (- 0 1) (* b__98 a__40))) 0) (>= (+ (* b__98 a__28 a__21) (* (- 0 1) (* b__98 a__8 a__42 a__38)) (* (- 0 1) (* b__98 a__8 a__39))) 0) (>= (+ (* b__100 a__33) (* b__100 a__9 a__34) (* (- 0 1) (* b__100 a__43)) (* (- 0 1) (* b__100 a__12 a__44)) (* (- 0 1) (* b__100 a__7 a__13 a__44)) (* (- 0 1) (* b__100 a__7 a__45))) 0) (>= (+ (* b__100 a__10 a__34) (* (- 0 1) (* b__100 a__8 a__13 a__44))) 0) (>= (+ (* b__100 a__11 a__34) (* (- 0 1) (* b__100 a__8 a__45))) 0) (>= (+ (* b__101 a__41) (* b__101 a__9 a__42) (* (- 0 1) (* b__101 a__46)) (* (- 0 1) (* b__101 a__12 a__47)) (* (- 0 1) (* b__101 a__7 a__13 a__47)) (* (- 0 1) (* b__101 a__7 a__48)) (* (- 0 1) (* b__101 a__7 a__49))) 0) (>= (+ (* b__101 a__10 a__42) (* (- 0 1) (* b__101 a__8 a__13 a__47)) (* (- 0 1) (* b__101 a__8 a__48))) 0) (>= (+ (* b__101 a__11 a__42) (* (- 0 1) (* b__101 a__8 a__49))) 0) (>= (+ (* b__98 a__37) (* b__98 a__4 a__38) (* (- 0 1) (* b__98 a__50)) (* (- 0 1) (* b__98 a__33 a__51)) (* (- 0 1) (* b__98 a__7 a__34 a__51)) (* (- 0 1) (* b__98 a__7 a__52)) (* (- 0 1) (* b__98 a__7 a__53))) 0) (>= (+ (* b__98 a__39) (* (- 0 1) (* b__98 a__8 a__34 a__51)) (* (- 0 1) (* b__98 a__8 a__52))) 0) (>= (+ (* b__98 a__40) (* (- 0 1) (* b__98 a__8 a__53))) 0) (>= (+ (* b__100 a__43) (* b__100 a__4 a__44) (* (- 0 1) (* b__100 a__54)) (* (- 0 1) (* b__100 a__33 a__55)) (* (- 0 1) (* b__100 a__7 a__34 a__55))) 0) (>= (+ (* b__100 a__45) (* (- 0 1) (* b__100 a__8 a__34 a__55))) 0) (>= (+ (* b__101 a__46) (* b__101 a__4 a__47) (* (- 0 1) (* b__101 a__56)) (* (- 0 1) (* b__101 a__12 a__57)) (* (- 0 1) (* b__101 a__7 a__13 a__57)) (* (- 0 1) (* b__101 a__7 a__58)) (* (- 0 1) (* b__101 a__7 a__59))) 0) (>= (+ (* b__101 a__48) (* (- 0 1) (* b__101 a__8 a__13 a__57)) (* (- 0 1) (* b__101 a__8 a__58))) 0) (>= (+ (* b__101 a__49) (* (- 0 1) (* b__101 a__8 a__59))) 0) (>= (+ (* b__98 a__50) (* b__98 a__4 a__51) (* (- 0 1) (* b__98 a__60)) (* (- 0 1) (* b__98 a__64 a__61)) (* (- 0 1) (* b__98 a__7 a__65 a__61)) (* (- 0 1) (* b__98 a__7 a__62)) (* (- 0 1) (* b__98 a__7 a__63))) 0) (>= (+ (* b__98 a__52) (* (- 0 1) (* b__98 a__8 a__62))) 0) (>= (+ (* b__98 a__53) (* (- 0 1) (* b__98 a__8 a__65 a__61)) (* (- 0 1) (* b__98 a__8 a__63))) 0) (>= (+ (* b__101 a__56) (* b__101 a__4 a__57) (* (- 0 1) (* b__101 a__66)) (* (- 0 1) (* b__101 a__33 a__67)) (* (- 0 1) (* b__101 a__7 a__34 a__67)) (* (- 0 1) (* b__101 a__7 a__68)) (* (- 0 1) (* b__101 a__7 a__69))) 0) (>= (+ (* b__101 a__58) (* (- 0 1) (* b__101 a__8 a__68))) 0) (>= (+ (* b__101 a__59) (* (- 0 1) (* b__101 a__8 a__34 a__67)) (* (- 0 1) (* b__101 a__8 a__69))) 0) (>= (+ (* b__102 a__64) (* b__102 a__18 a__65) (* (- 0 1) (* b__102 a__70)) (* (- 0 1) (* b__102 a__33 a__71)) (* (- 0 1) (* b__102 a__7 a__34 a__71)) (* (- 0 1) (* b__102 a__7 a__72))) 0) (>= (+ (* b__102 a__19 a__65) (* (- 0 1) (* b__102 a__8 a__34 a__71)) (* (- 0 1) (* b__102 a__8 a__72))) 0) (>= (+ (* b__102 a__64) (* b__102 a__22 a__65) (* (- 0 1) (* b__102 a__73)) (* (- 0 1) (* b__102 a__12 a__74)) (* (- 0 1) (* b__102 a__7 a__13 a__74)) (* (- 0 1) (* b__102 a__7 a__75))) 0) (>= (+ (* b__102 a__23 a__65) (* (- 0 1) (* b__102 a__8 a__13 a__74)) (* (- 0 1) (* b__102 a__8 a__75))) 0) (>= (+ (* b__98 a__60) (* b__98 a__4 a__61) (* (- 0 1) (* b__98 a__76)) (* (- 0 1) (* b__98 a__12 a__77)) (* (- 0 1) (* b__98 a__7 a__13 a__77)) (* (- 0 1) (* b__98 a__7 a__78))) 0) (>= (+ (* b__98 a__62) (* (- 0 1) (* b__98 a__8 a__78))) 0) (>= (+ (* b__98 a__63) (* (- 0 1) (* b__98 a__8 a__13 a__77))) 0) (>= (+ (* b__101 a__66) (* b__101 a__4 a__67) (* (- 0 1) (* b__101 a__79)) (* (- 0 1) (* b__101 a__33 a__80)) (* (- 0 1) (* b__101 a__7 a__34 a__80)) (* (- 0 1) (* b__101 a__7 a__81)) (* (- 0 1) (* b__101 a__7 a__82))) 0) (>= (+ (* b__101 a__68) (* (- 0 1) (* b__101 a__8 a__81))) 0) (>= (+ (* b__101 a__69) (* (- 0 1) (* b__101 a__8 a__34 a__80)) (* (- 0 1) (* b__101 a__8 a__82))) 0) (>= (+ (* b__102 a__70) (* b__102 a__4 a__71) (* (- 0 1) (* b__102 a__83)) (* (- 0 1) (* b__102 a__33 a__84)) (* (- 0 1) (* b__102 a__7 a__34 a__84)) (* (- 0 1) (* b__102 a__7 a__85))) 0) (>= (+ (* b__102 a__72) (* (- 0 1) (* b__102 a__8 a__34 a__84)) (* (- 0 1) (* b__102 a__8 a__85))) 0) (>= (+ (* b__102 a__73) (* b__102 a__4 a__74) (* (- 0 1) (* b__102 a__86)) (* (- 0 1) (* b__102 a__12 a__87)) (* (- 0 1) (* b__102 a__7 a__13 a__87)) (* (- 0 1) (* b__102 a__7 a__88))) 0) (>= (+ (* b__102 a__75) (* (- 0 1) (* b__102 a__8 a__13 a__87)) (* (- 0 1) (* b__102 a__8 a__88))) 0) (>= (+ (* b__98 a__76) (* b__98 a__4 a__77) (* (- 0 1) (* b__98 a__24)) (* (- 0 1) (* b__98 a__20 a__25)) (* (- 0 1) (* b__98 a__7 a__21 a__25))) 0) (>= (+ (* b__98 a__78) (* (- 0 1) (* b__98 a__8 a__21 a__25))) 0) (>= (+ (* b__101 a__79) (* b__101 a__4 a__80) (* (- 0 1) (* b__101 a__89)) (* (- 0 1) (* b__101 a__64 a__90)) (* (- 0 1) (* b__101 a__7 a__65 a__90)) (* (- 0 1) (* b__101 a__7 a__91))) 0) (>= (+ (* b__101 a__81) (* (- 0 1) (* b__101 a__8 a__65 a__90))) 0) (>= (+ (* b__101 a__82) (* (- 0 1) (* b__101 a__8 a__91))) 0) (>= (+ (* b__102 a__83) (* b__102 a__4 a__84) (* (- 0 1) (* b__102 a__92)) (* (- 0 1) (* b__102 a__41 a__93)) (* (- 0 1) (* b__102 a__7 a__42 a__93))) 0) (>= (+ (* b__102 a__85) (* (- 0 1) (* b__102 a__8 a__42 a__93))) 0) (>= (+ (* b__102 a__86) (* b__102 a__4 a__87) (* (- 0 1) (* b__102 a__94)) (* (- 0 1) (* b__102 a__64 a__95)) (* (- 0 1) (* b__102 a__7 a__65 a__95))) 0) (>= (+ (* b__102 a__88) (* (- 0 1) (* b__102 a__8 a__65 a__95))) 0) (>= (+ (* b__101 a__89) (* b__101 a__4 a__90) (* (- 0 1) (* b__101 a__96)) (* (- 0 1) (* b__101 a__41 a__97)) (* (- 0 1) (* b__101 a__7 a__42 a__97))) 0) (>= (+ (* b__101 a__91) (* (- 0 1) (* b__101 a__8 a__42 a__97))) 0) (>= (+ (* b__98 a__20) (* b__98 a__30 a__21) (* (- 0 1) (* b__98 a__17))) 0) (>= (+ (* b__98 a__20) (* (- 0 1) (* b__98 a__18))) 0) (>= (+ (* b__98 a__21) (* (- 0 1) (* b__98 a__19))) 0) (>= (+ (* b__98 a__24) (* (- 0 1) (* b__98 a__22))) 0) (>= (+ (* b__98 a__25) (* (- 0 1) (* b__98 a__23))) 0) (>= (+ (* b__98 a__26) (* (- 0 1) (* b__98 a__9))) 0) (>= (+ (* b__98 a__27) (* (- 0 1) (* b__98 a__10))) 0) (>= (+ (* b__98 a__28) (* (- 0 1) (* b__98 a__11))) 0) (>= (+ (* b__101 a__41) (* b__101 a__29 a__42) (* (- 0 1) (* b__101 a__4))) 0) (>= (+ (* b__100 a__33) (* b__100 a__29 a__34) (* (- 0 1) (* b__100 a__4))) 0) (>= (+ (* b__100 a__33) (* b__100 a__14 a__34) (* (- 0 1) (* b__100 a__4))) 0) (>= (+ (* b__99 a__31) (* b__99 a__4 a__32) (* (- 0 1) (* b__99 a__4))) 0) (>= (+ (* b__99 a__35) (* b__99 a__4 a__36) (* (- 0 1) (* b__99 a__4))) 0) (>= (+ (* b__100 a__54) (* b__100 a__4 a__55) (* (- 0 1) (* b__100 a__4))) 0) (>= (+ (* b__102 a__64) (* b__102 a__16 a__65) (* (- 0 1) (* b__102 a__4))) 0) (>= (+ (* b__102 a__92) (* b__102 a__4 a__93) (* (- 0 1) (* b__102 a__4))) 0) (>= (+ (* b__102 a__94) (* b__102 a__4 a__95) (* (- 0 1) (* b__102 a__4))) 0) (>= (+ (* b__101 a__96) (* b__101 a__4 a__97) (* (- 0 1) (* b__101 a__4))) 0) (>= (+ (* b__98 a__15) (* (- 0 1) (* b__98 a__26)) (* (- 0 1) (* b__98 a__17 a__27)) (* (- 0 1) (* b__98 a__14 a__28))) 0) (>= (+ (* b__98 a__15) (* (- 0 1) (* b__98 a__14))) 0) (>= (+ (* b__98 a__17) (* (- 0 1) (* b__98 a__16))) 0) (>= (+ (* b__98 a__30) (* (- 0 1) (* b__98 a__29))) 0) (>= (+ a__1 (* a__4 a__2) (* (- 0 1) a__5) (* (- 0 1) (* a__7 a__6))) 0) (>= (+ a__5 (* a__9 a__6) (* (- 0 1) a__1) (* (- 0 1) (* a__12 a__2)) (* (- 0 1) (* a__7 a__13 a__2)) (* (- 0 1) (* a__7 a__3))) 0) (not (and (= (+ a__1 (* a__4 a__2) (* (- 0 1) a__5) (* (- 0 1) (* a__7 a__6))) 0) (= (+ a__5 (* a__9 a__6) (* (- 0 1) a__1) (* (- 0 1) (* a__12 a__2)) (* (- 0 1) (* a__7 a__13 a__2)) (* (- 0 1) (* a__7 a__3))) 0))) (>= b__98 0) (>= 1 b__98) (>= a__6 0) (>= a__3 0) (>= a__2 0) (>= a__13 0) (>= a__45 0) (>= a__32 0) (>= a__34 0) (>= b__99 0) (>= 1 b__99) (>= a__77 0) (>= a__74 0) (>= a__61 0) (>= a__87 0) (>= a__44 0) (>= a__51 0) (>= a__47 0) (>= a__38 0) (>= a__57 0) (>= a__71 0) (>= a__84 0) (>= a__93 0) (>= a__90 0) (>= a__67 0) (>= a__80 0) (>= b__100 0) (>= 1 b__100) (>= b__101 0) (>= 1 b__101) (>= b__102 0) (>= 1 b__102) (>= a__8 0) (>= a__10 0) (>= a__11 0) (>= a__7 0) (>= a__14 0) (>= a__15 0) (>= a__16 0) (>= a__17 0) (>= a__18 0) (>= a__20 0) (>= a__21 0) (>= a__19 0) (>= a__22 0) (>= a__24 0) (>= a__25 0) (>= a__23 0) (>= a__9 0) (>= a__26 0) (>= a__27 0) (>= a__28 0) (>= a__29 0) (>= a__30 0) (>= a__12 0) (>= a__4 0) (>= a__31 0) (>= a__33 0) (>= a__35 0) (>= a__36 0) (>= a__37 0) (>= a__41 0) (>= a__42 0) (>= a__39 0) (>= a__40 0) (>= a__43 0) (>= a__46 0) (>= a__48 0) (>= a__49 0) (>= a__50 0) (>= a__52 0) (>= a__53 0) (>= a__54 0) (>= a__55 0) (>= a__56 0) (>= a__58 0) (>= a__59 0) (>= a__60 0) (>= a__64 0) (>= a__65 0) (>= a__62 0) (>= a__63 0) (>= a__66 0) (>= a__68 0) (>= a__69 0) (>= a__70 0) (>= a__72 0) (>= a__73 0) (>= a__75 0) (>= a__76 0) (>= a__78 0) (>= a__79 0) (>= a__81 0) (>= a__82 0) (>= a__83 0) (>= a__85 0) (>= a__86 0) (>= a__88 0) (>= a__89 0) (>= a__91 0) (>= a__92 0) (>= a__94 0) (>= a__95 0) (>= a__96 0) (>= a__97 0) (>= a__1 0) (>= a__5 0)))
(assert (<= a__1 100))
(assert (<= a__10 100))
(assert (<= a__11 100))
(assert (<= a__12 100))
(assert (<= a__13 100))
(assert (<= a__14 100))
(assert (<= a__15 100))
(assert (<= a__16 100))
(assert (<= a__17 100))
(assert (<= a__18 100))
(assert (<= a__19 100))
(assert (<= a__2 100))
(assert (<= a__20 100))
(assert (<= a__21 100))
(assert (<= a__22 100))
(assert (<= a__23 100))
(assert (<= a__24 100))
(assert (<= a__25 100))
(assert (<= a__26 100))
(assert (<= a__27 100))
(assert (<= a__28 100))
(assert (<= a__29 100))
(assert (<= a__3 100))
(assert (<= a__30 100))
(assert (<= a__31 100))
(assert (<= a__32 100))
(assert (<= a__33 100))
(assert (<= a__34 100))
(assert (<= a__35 100))
(assert (<= a__36 100))
(assert (<= a__37 100))
(assert (<= a__38 100))
(assert (<= a__39 100))
(assert (<= a__4 100))
(assert (<= a__40 100))
(assert (<= a__41 100))
(assert (<= a__42 100))
(assert (<= a__43 100))
(assert (<= a__44 100))
(assert (<= a__45 100))
(assert (<= a__46 100))
(assert (<= a__47 100))
(assert (<= a__48 100))
(assert (<= a__49 100))
(assert (<= a__5 100))
(assert (<= a__50 100))
(assert (<= a__51 100))
(assert (<= a__52 100))
(assert (<= a__53 100))
(assert (<= a__54 100))
(assert (<= a__55 100))
(assert (<= a__56 100))
(assert (<= a__57 100))
(assert (<= a__58 100))
(assert (<= a__59 100))
(assert (<= a__6 100))
(assert (<= a__60 100))
(assert (<= a__61 100))
(assert (<= a__62 100))
(assert (<= a__63 100))
(assert (<= a__64 100))
(assert (<= a__65 100))
(assert (<= a__66 100))
(assert (<= a__67 100))
(assert (<= a__68 100))
(assert (<= a__69 100))
(assert (<= a__7 100))
(assert (<= a__70 100))
(assert (<= a__71 100))
(assert (<= a__72 100))
(assert (<= a__73 100))
(assert (<= a__74 100))
(assert (<= a__75 100))
(assert (<= a__76 100))
(assert (<= a__77 100))
(assert (<= a__78 100))
(assert (<= a__79 100))
(assert (<= a__8 100))
(assert (<= a__80 100))
(assert (<= a__81 100))
(assert (<= a__82 100))
(assert (<= a__83 100))
(assert (<= a__84 100))
(assert (<= a__85 100))
(assert (<= a__86 100))
(assert (<= a__87 100))
(assert (<= a__88 100))
(assert (<= a__89 100))
(assert (<= a__9 100))
(assert (<= a__90 100))
(assert (<= a__91 100))
(assert (<= a__92 100))
(assert (<= a__93 100))
(assert (<= a__94 100))
(assert (<= a__95 100))
(assert (<= a__96 100))
(assert (<= a__97 100))
(check-sat)
;;(get-assignment)
;;(get-model)
(exit)
